(set-logic QF_S)
(declare-fun var0 () Int)
(declare-fun var1 () String)
(declare-fun var2 () Int)
(declare-fun var3 () String)
(declare-fun var4 () String)
(declare-fun var5 () String)
(declare-fun var6 () Int)
(declare-fun var7 () Int)
(assert (> var0 183))
(assert (str.in.re (str.at var1 var2) (re.+ re.allchar)))
(assert (str.suffixof var3 var4))
(assert (str.suffixof (str.replace var5 var1 var3) (str.substr var4 var6 var7)))
(check-sat)